#LAMMPS Input file
# Title
clear

# ----- condition settings -----

variable   temp1 index 77.0 # K (for NPT process)

variable   temp2 index 77.0 # K (for GCMC process)

variable   pres index 1.0 # (bar units), 1.0 bar = 0.1 MPa 

variable   tfac index 1.0  #

# -----other settings -----
variable   fs   index 0.0005 # 0.5 fs
variable   ps   index 20 # 20 ps
variable   ps_gcmc index 30 # 30 ps
variable   nfreq index 100 # = Nevery * Nrepeat
variable   nstep equal ${ps}/${fs}
variable   nstep_gcmc equal ${ps_gcmc}/${fs}
variable   tdamp equal ${fs}*100
variable   pdamp equal ${fs}*1000
variable   pdamp_gcmc equal ${fs}*100 # (for GCMC process)
variable   disp index 0.01
variable   natom index 10
variable   nmove index 10
variable   mu   index -5.46 # Fermi Energy (eV) from MOPAC2016 PM7

# ----- Structure settings -----
units      metal
dimension  3
boundary   p p p
atom_style full
read_data  data.ch
replicate  1 1 1
timestep   ${fs}

molecule        gas H2.txt
group           ztc type 1:2 # 1=C, 2=H
group           gas type 3   # 3=molecular (e.g., N2)

mass 1 12.0107 # C
mass 2 1.00794 # H
mass 3 1.00794 # H
# mass 3 14.0067 # N
# mass 3 15.9994 # O


# ----- Potential settings -----
pair_style hybrid airebo 3.0 1 0 lj/cut/coul/long 14
pair_coeff * * airebo CH.airebo C H NULL

# H2 case
pair_coeff 1 3 lj/cut/coul/long 0.002947 3.000 # C-H (H2)
pair_coeff 2 3 lj/cut/coul/long 0.001908 2.570 # H-H (H2)
pair_coeff 3 3 lj/cut/coul/long 0.001908 2.570 # H-H (H2)

kspace_style    ewald 1.0e-5
bond_style      morse #bond for N2 molecules
bond_coeff      1       0       1.0       1.0    # dummy
bond_coeff      2       0       1.0       1.0    # dummy
bond_coeff      3   4.750162    1.93      0.741  # H2
delete_bonds all bond  1*2 remove
delete_bonds all angle 1*2 remove
delete_bonds all dihedral 1*3 remove

# N2 case
# pair_coeff 1 3 lj/cut/coul/long 0.003908 3.347 #   C-N
# pair_coeff 2 3 lj/cut/coul/long 0.002529 2.917 #   H-N
# pair_coeff 3 3 lj/cut/coul/long 0.003354 3.263 #   N-N
# bond_coeff      3   9.9064      2.6892  1.097685 # N2

# O2 case
# pair_coeff 1 3 lj/cut/coul/long 0.003442 3.275 # C-O (O2)
# pair_coeff 2 3 lj/cut/coul/long 0.002228 2.845 # H-O (O2)
# pair_coeff 3 3 lj/cut/coul/long 0.002602 3.120 # O-O (O2)
# bond_coeff      3   5.214       2.655   1.208    # O2

# K.P. Huber, G. Herzberg, Constants of Diatomic Molecules, Van Nostrand (1979). 
# E. Fidiani, Conference Proceeding 1719 (2016) 030001.: https://doi.org/10.1063/1.4943696 
# https://aip.scitation.org/doi/pdf/10.1063/1.4943696
# bond_coeff      3   5.214       2.655   1.208    # O2
# bond_coeff      3   9.905       2.691   1.098    # N2
# bond_coeff      3   4.618       1.869   1.275    # HCl
#
# Morse potential energy spectra through the variational method and supersymmetry
# https://cds.cern.ch/record/406007/files/9910254.pdf
# bond_coeff      3   4.7446      1.9426  0.7416   # H2
# bond_coeff      3   4.61903     1.8677  1.2746   # HCl
# bond_coeff      3  11.2255      2.2994  1.1283   # CO
# bond_coeff      3   2.51527     1.1280  1.5956   # LiH

# bond_coeff      3   4.457      1.94  0.75   # H2
# bond_coeff      3   5.068      2.68  1.20   # O2
# bond_coeff      3   7.369      3.11  1.09   # N2
# bond_coeff      3   2.467      2.05  1.98   # Cl2
# bond_coeff      3   1.99       1.97  2.28   # B2
# bond_coeff      3   1.565      1.86  2.66   # I2
#
# https://arxiv.org/ftp/arxiv/papers/1909/1909.07551.pdf
# bond_coeff      3   3.94742    x.x   1.1198 # CH
# bond_coeff      3   8.04373    x.x   1.1508 # NO
# bond_coeff      3  11.93820    x.x   1.0940 # N2
# bond_coeff      3   4.61903    x.x   1.2746 # HCl
# bond_coeff      3  10.84508    x.x   1.1282 # CO

# ----- Potential data -----
# C,    52.84 [K](epsilon/K), 0.343  [nm](sigma)
# H,    22.14 [K](epsilon/K), 0.257  [nm](sigma)
# O,    30.20 [K](epsilon/K), 0.312  [nm](sigma)
# N,    38.92 [K](epsilon/K), 0.3263 [nm](sigma)
# He,   10.41 [K](epsilon/K), 0.602  [nm](sigma)
# Ar,  141.6  [K](epsilon/K), 0.3350 [nm](sigma)
# N2,  104.2  [K](epsilon/K), 0.3632 [nm](sigma)
# H2,   36.7  [K](epsilon/K), 0.2958 [nm](sigma)
# O2,  126.3  [K](epsilon/K), 0.3382 [nm](sigma)
# CO2, 245.3  [K](epsilon/K), 0.3762 [nm](sigma)
# CH4, 161.3  [K](epsilon/K), 0.3721 [nm](sigma)
# Lorentz-Berthelot: 
#  epsilon(ij) = sqrt(epsilon(i)*epsilon(j)) [K] (epsilon/K)
#  sigma(ij)   = (sigma(i)+sigma(j))/2       [nm](sigma)
# real  unit: [kcal/mol]=[K]*0.001987, [Angstrom]=[nm]*10
# metal unit: [eV]=[K]*0.00008617, [Angstrom]=[nm]*10

# ----- Output setting -----
thermo_style    custom step etotal temp lx vol press
thermo          ${nfreq}

# ----- Relax calculation (0 K) -----
print "----- Relax calculation (0 K) -----"
fix             f1 all box/relax iso 0.0
minimize        1.0e-10 0.0 1000 100000
unfix           f1

# ----- reset timestep and dt -----
reset_timestep  0
timestep        ${fs}

# ----- Output setting -----
dump            d1 all cfg ${nfreq} cfg/run.*.cfg mass type xs ys zs id type
dump_modify     d1 element C H H

# ----- Check equilibriation setting -----
variable        Energy equal etotal
variable        Temperature equal temp
variable        Pressure equal press
fix             fout1 all ave/time 1 ${nfreq} ${nfreq} v_Energy v_Temperature v_Pressure file out_energy.txt

# ----- Equilibriation (NPT) -----
print "----- Equilibriation (NPT) -----"
velocity        all create 10.0 123456
fix             f1 all npt temp 10.0 ${temp1} ${tdamp} iso 0.0 ${pres} ${pdamp}
run             ${nstep} # 20 ps
unfix           f1

# ----- Equilibriation (NVT) -----
#print "----- Equilibriation (NVT) -----"
#fix             f1 all nvt temp ${temp1} ${temp2} ${tdamp}
#run             ${nstep} # 20 ps
#unfix           f1

# ----- GCMC Calculation-----
print "----- GCMC Calculation -----"
fix             f1 ztc npt temp ${temp2} ${temp2} ${tdamp} iso ${pres} ${pres} ${pdamp_gcmc}
fix             f2 gas nvt temp ${temp2} ${temp2} ${tdamp}
fix             f3 gas gcmc ${nfreq} ${natom} ${nmove} 0 761341 ${temp2} ${mu} ${disp} mol gas pressure ${pres} tfac_insert ${tfac}

# ----- atom count -----
variable        type1 atom "type==1" # C
variable        type2 atom "type==2" # H
variable        type3 atom "type==3" # Gas
group           type1 dynamic ztc var type1 # C
group           type2 dynamic ztc var type2 # H
group           type3 dynamic gas var type3 # Gas (e.g., He, Ar, Kr, etc)
variable        nc  equal count(type1) # C
variable        nh  equal count(type2) # H
variable        ngas equal count(type3) # Gas (e.g., He, Ar, Kr, etc)

# ----- averaging -----
variable        rho equal density
variable        p equal press
variable        t equal temp
variable        nugget equal 1.0e-8
variable        lambda equal 1.0
variable        muex equal ${mu}-${temp2}*ln(density*${lambda}+${nugget})
fix             ave all ave/time 1 ${nfreq} ${nfreq} v_rho v_p v_muex v_ngas v_nc v_nh v_t ave one file rho_vs_p.dat
variable        rhoav equal f_ave[1]
variable        pav equal f_ave[2]
variable        muexav equal f_ave[3]
variable        ngasav equal f_ave[4] # Gas (e.g., He, Ar, Kr, etc)
variable        ncav equal f_ave[5] # C
variable        nhav equal f_ave[6] # H

variable        wtav equal f_ave[4]/(f_ave[5]*12+f_ave[6]+f_ave[4]+${nugget})*100

compute_modify  thermo_temp dynamic/dof yes
thermo_style    custom step temp press pe ke density atoms v_rhoav v_pav v_muexav v_ngasav v_ncav v_nhav v_wtav
thermo          ${nfreq}

# ----- Output setting -----
dump            d3 all cfg ${nfreq} cfg/gcmc_run.*.cfg mass type xs ys zs id type
dump_modify     d3 element C H H

fix_modify      f1 temp thermo_temp
fix_modify      f2 temp thermo_temp

run             ${nstep_gcmc} # 30 ps
unfix f1
unfix f2
unfix f3

# ----- Output restart data -----
write_data gcmc_restart.data