#LAMMPS Input file
# Title
clear

# ----- condition settings -----

variable   temp index 77.0 # K (for GCMC process)

variable   pres index 1.0 # (bar units), 1.0 bar = 0.1 MPa 

vvariable   tfac index 1.0 # 1 atom (e.g, He, Ar, Kr, etc)
#variable   tfac  equal 5.0/3.0 # (3 trans + 2 rot)/(3 trans) for molecular (2 atoms)
# trans = 3, rot = 2 (line), rot = 3 (non-line), vib = 3n-5 (line), vib = 3n-6 (non-line)
# total = 3n = 3+2+3n-5 = 3+3+3n-6
# vib = about 0.0 at R.T. for molecular (2 atoms)

variable   lbox index 100.0

variable   spacing index 30.0

# -----other settings -----
variable   fs   index 0.0005 # 0.5 fs
variable   ps   index 20 # 20 ps
variable   ps_gcmc index 30 # 30 ps
variable   nfreq index 100 # = Nevery * Nrepeat
variable   nstep equal ${ps}/${fs}
variable   nstep_gcmc equal ${ps_gcmc}/${fs}
variable   tdamp equal ${fs}*100
variable   pdamp equal ${fs}*1000
variable   disp index 0.01
variable   natom index 10
variable   nmove index 10
variable   mu   index -5.46 # Fermi Energy (eV) from MOPAC2016 PM7

# ----- Structure settings -----
units      metal
atom_style atomic
dimension  3
boundary   p p p
lattice    bcc ${spacing}
region     box block 0 ${lbox} 0 ${lbox} 0 ${lbox} units box
create_box   1 box
create_atoms 1 box
timestep   ${fs}

mass 1 4.00260 # He
# mass 1 39.95  # Ar
# mass 1 44.01  # CO2
# mass 1 28.014 # N2
# mass 1  2.016 # H2

# ----- Potential settings -----
pair_style lj/cut 10.2

# He case
pair_coeff 1 1 0.000897 6.020 #  He-He

# Ar case
# pair_coeff 1 1 0.012202 3.350 #  Ar-Ar

# CO2 case
# pair_coeff 1 1 0.021138 3.762 # CO2-CO2

# N2 case
# pair_coeff 1 1 0.008979 3.632 #  N2-N2

# H2 case
# pair_coeff 1 1 0.003162 2.958 #  H2-H2

# ----- Potential data -----
# C,    52.84 [K](epsilon/K), 0.343  [nm](sigma)
# H,    22.14 [K](epsilon/K), 0.257  [nm](sigma)
# O,    30.20 [K](epsilon/K), 0.312  [nm](sigma)
# He,   10.41 [K](epsilon/K), 0.602  [nm](sigma)
# Ar,  141.6  [K](epsilon/K), 0.3350 [nm](sigma)
# N2,  104.2  [K](epsilon/K), 0.3632 [nm](sigma)
# H2,   36.7  [K](epsilon/K), 0.2958 [nm](sigma)
# O2,  126.3  [K](epsilon/K), 0.3382 [nm](sigma)
# CO2, 245.3  [K](epsilon/K), 0.3762 [nm](sigma)
# CH4, 161.3  [K](epsilon/K), 0.3721 [nm](sigma)
# Lorentz-Berthelot: 
#  epsilon(ij) = sqrt(epsilon(i)*epsilon(j)) [K] (epsilon/K)
#  sigma(ij)   = (sigma(i)+sigma(j))/2       [nm](sigma)
# real  unit: [kcal/mol]=[K]*0.001987, [Angstrom]=[nm]*10
# metal unit: [eV]=[K]*0.00008617, [Angstrom]=[nm]*10

# ----- Output setting -----
dump            d1 all cfg ${nfreq} cfg/run.*.cfg mass type xs ys zs id type
dump_modify     d1 element He

# ----- Check equilibriation setting -----
variable        Energy equal etotal
variable        Temperature equal temp
variable        Pressure equal press
fix             fout1 all ave/time 1 ${nfreq} ${nfreq} v_Energy v_Temperature v_Pressure file out_energy.txt

# ----- Equilibriation (NPT) -----
#print "----- Equilibriation (NPT) -----"
#velocity        all create ${temp} 123456
#fix             f1 all npt temp ${temp} ${temp} ${tdamp} iso 0.0 ${pres} ${pdamp}
#run             ${nstep} # 20 ps
#unfix           f1

# ----- Equilibriation (NVT) -----
print "----- Equilibriation (NVT) -----"
velocity        all create ${temp} 123456
fix             f1 all nvt temp ${temp} ${temp} ${tdamp}
run             ${nstep} # 20 ps
unfix           f1

# ----- GCMC Calculation-----
print "----- GCMC Calculation -----"
group           gas type 1   # 1=He
fix             f1 all nvt temp ${temp} ${temp} ${tdamp}
fix             f2 gas gcmc ${nfreq} ${natom} ${nmove} 1 761341 ${temp} ${mu} ${disp} pressure ${pres} tfac_insert ${tfac}

# ----- atom count -----
variable        type1 atom "type==1" # Gas
group           type1 dynamic gas var type1 # Gas (e.g., He, Ar, Kr, etc)
variable        ngas equal count(type1) # Gas (e.g., He, Ar, Kr, etc)

# ----- averaging -----
variable        rho equal density
variable        p equal press
variable        t equal temp
variable        nugget equal 1.0e-8
variable        lambda equal 1.0
variable        muex equal ${mu}-${temp}*ln(density*${lambda}+${nugget})
fix             ave all ave/time 1 ${nfreq} ${nfreq} v_rho v_p v_muex v_ngas v_t ave one file rho_vs_p.dat
variable        rhoav equal f_ave[1]
variable        pav equal f_ave[2]
variable        muexav equal f_ave[3]
variable        ngasav equal f_ave[4] # Gas (e.g., He, Ar, Kr, etc)
variable        tav equal f_ave[5]

compute_modify  thermo_temp dynamic/dof yes
thermo_style    custom step temp press pe ke density atoms v_rhoav v_pav v_muexav v_ngasav
thermo          ${nfreq}

# ----- Output setting -----
dump            d3 all cfg ${nfreq} cfg/gcmc_run.*.cfg mass type xs ys zs id type
dump_modify     d3 element He

fix_modify      f1 temp thermo_temp

run             ${nstep_gcmc} # 30 ps
unfix f1
unfix f2
