#LAMMPS Input file
# Title
clear

# ----- condition settings -----

variable   temp1 index 303.0 # K (for NPT process)

variable   temp2 index 303.0 # K (for GCMC process)

variable   pres index 500.0 # (bar units), 1.0 bar = 0.1 MPa 

variable   tfac  equal 5.0/3.0 # (3 trans + 2 rot)/(3 trans)
# trans = 3, rot = 2 (line), rot = 3 (non-line), vib = 3n-5 (line), vib = 3n-6 (non-line)
# total = 3n = 3+2+3n-5 = 3+3+3n-6
# vib = about 0.0 at R.T. for molecular (2 atoms)

# -----other settings -----
variable   fs   index 0.0020 # =< 2.0 fs for rigid or rigid/small
#variable   fs   index 0.0005 # 0.5 fs (normal setting)
variable   ps   index 20 # 20 ps
variable   ps_gcmc index 30 # 30 ps
variable   nfreq index 100 # = Nevery * Nrepeat
variable   nstep equal ${ps}/${fs}
variable   nstep_gcmc equal ${ps_gcmc}/${fs}
variable   tdamp equal ${fs}*100
variable   pdamp equal ${fs}*1000
variable   pdamp_gcmc equal ${fs}*100 # (for GCMC process)
variable   disp index 0.01
variable   natom index 10
variable   mu   index -5.46 # Fermi Energy (eV) from MOPAC2016 PM7

# ----- Structure settings -----
units      metal
dimension  3
boundary   p p p
atom_style full
read_data  data.c
replicate  1 1 1
timestep   ${fs}

molecule        gas N2.txt
#group           ztc type 1 # 1=C
group           gas type 2:3   # 2=N, 3=M (e.g., N2)

mass 1 12.0107 # C
mass 2 14.0067 # N
mass 3 0.00001 # M

# ----- Potential settings -----
pair_style hybrid airebo 3.0 1 0 lj/cut/coul/long 15.0 15.0
pair_coeff * * airebo CH.airebo C NULL NULL

# N2 case
pair_coeff 1 2 lj/cut/coul/long 0.003758 3.370 #   C-N
pair_coeff 1 3 lj/cut/coul/long 0.000000 0.000 #   C-M
pair_coeff 2 2 lj/cut/coul/long 0.003102 3.310 #   N-N
pair_coeff 2 3 lj/cut/coul/long 0.000000 0.000 #   N-M
pair_coeff 3 3 lj/cut/coul/long 0.000000 0.000 #   M-M

# https://github.com/dwsideriusNIST/LAMMPS_Examples/blob/master/TraPPEN2_example/in.TraPPEN2
kspace_style   ewald 1.0e-4
kspace_modify  gewald 0.24287

pair_modify tail yes
bond_style      harmonic # bond for N2 molecules
bond_coeff      1       0      1.0    # dummy (test version)
bond_coeff      2    216.8344  0.550  # N2 (test version)
angle_style     harmonic # bond for N2 molecules
angle_coeff     1       0      180    # dummy (test version)
angle_coeff     2     21.68344 180.00 # N2 (dummy) (test version)
delete_bonds all bond  1*1 remove
delete_bonds all angle 1*1 remove
delete_bonds all dihedral 1*1 remove

# H2 case
# pair_coeff 1 3 lj/cut/coul/long 0.002947 3.000 # C-H (H2)
# pair_coeff 2 3 lj/cut/coul/long 0.001908 2.570 # H-H (H2)
# pair_coeff 3 3 lj/cut/coul/long 0.001908 2.570 # H-H (H2)
# bond_coeff      3   4.750162    1.93    0.741  # H2

# O2 case
# pair_coeff 1 3 lj/cut/coul/long 0.003442 3.275 # C-O (O2)
# pair_coeff 2 3 lj/cut/coul/long 0.002228 2.845 # H-O (O2)
# pair_coeff 3 3 lj/cut/coul/long 0.002602 3.120 # O-O (O2)
# bond_coeff      3   5.214       2.655   1.208    # O2

# K.P. Huber, G. Herzberg, Constants of Diatomic Molecules, Van Nostrand (1979). 
# E. Fidiani, Conference Proceeding 1719 (2016) 030001.: https://doi.org/10.1063/1.4943696 
# https://aip.scitation.org/doi/pdf/10.1063/1.4943696

# ----- Potential data -----
# C,    52.84 [K](epsilon/K), 0.343  [nm](sigma)
# H,    22.14 [K](epsilon/K), 0.257  [nm](sigma)
# O,    30.20 [K](epsilon/K), 0.312  [nm](sigma)
# N,    38.92 [K](epsilon/K), 0.3263 [nm](sigma)
# N,    36.0  [K](epsilon/K), 0.3310 [nm](sigma), TraPPE (http://trappe.oit.umn.edu/) (Search the TraPPE Database [N2])
# He,   10.41 [K](epsilon/K), 0.602  [nm](sigma)
# Ar,  141.6  [K](epsilon/K), 0.3350 [nm](sigma)
# N2,  104.2  [K](epsilon/K), 0.3632 [nm](sigma)
# H2,   36.7  [K](epsilon/K), 0.2958 [nm](sigma)
# O2,  126.3  [K](epsilon/K), 0.3382 [nm](sigma)
# CO2, 245.3  [K](epsilon/K), 0.3762 [nm](sigma)
# CH4, 161.3  [K](epsilon/K), 0.3721 [nm](sigma)
# Lorentz-Berthelot: 
#  epsilon(ij) = sqrt(epsilon(i)*epsilon(j)) [K] (epsilon/K)
#  sigma(ij)   = (sigma(i)+sigma(j))/2       [nm](sigma)
# real  unit: [kcal/mol]=[K]*0.001987, [Angstrom]=[nm]*10
# metal unit: [eV]=[K]*0.00008617, [Angstrom]=[nm]*10

# ----- Potential data of DFT-----
# Latoskie, C., Gubbins, K., Quirke, N., Langmuir 9, 2693 (1993).
# Ravikovitch, P., Vishnyakov, A., Neimark, A.V., Physical review E, 64, 011602-1 (2001).
# N2,    94.45 [K](epsilon/K), 0.3575 [nm](sigma), 0.3575 [nm] (dHS)
# Ar,   118.05 [K](epsilon/K), 0.3305 [nm](sigma), 0.3390 [nm] (dHS)
# CO2,  235.9  [K](epsilon/K), 0.3454 [nm](sigma), 0.3495 [nm] (dHS)
#
# N2-C(cylinder),  53.22 [K](epsilon/K), 0.3494 [nm](sigma)
# N2-C(slit),      53.72 [K](epsilon/K), 0.3494 [nm](sigma)
# Ar-C,            55.0  [K](epsilon/K), 0.335  [nm](sigma)
# CO2-C,           81.5  [K](epsilon/K), 0.3430 [nm](sigma)
# N2-Si,          147.3  [K](epsilon/K), 0.3170 [nm](sigma)
# CO2-Si,         147.1  [K](epsilon/K), 0.3300 [nm](sigma)
# Ar-Si,          171.24 [K](epsilon/K), 0.3000 [nm](sigma)
# C , 0.3819 [Angstrom^-2] (rows)
# Si, 0.153  [Angstrom^-2] (rows)
# C(slit pore),     0.335 delta(nm)/layer spacing, 114 rows (nm^-3) 
# C,               38.19 (surface molecule number Ns (nm^-2) in cylinder and spherical pore)
# Si,              15.3  (surface molecule number Ns (nm^-2) in cylinder and spherical pore)

# ----- Potential data -----
# Ravikovitch, P., Vishnyakov, A., Neimark, A.V., Physical review E, 64, 011602-1 (2001).
# CH4,            148.2  [K](epsilon/K), 0.382  [nm](sigma), 0.382  [nm] (dHS)
# CH4-C,           64.4  [K](epsilon/K), 0.36   [nm](sigma)

# ----- Potential data of CO2 -----
# Ravikovitch, P.I., Vishnyakov, A., Russo, R., Neimark, A.V., Langmuir 16, 2311 (2000).
# Parameters of the Intermolecular Potentials for the Three-Center Model of CO2.
# Harris, J. G.; Yung, K. H. J. Phys. Chem. 1995, 99, 12021.
# O-O,  80.507 [K](epsilon/K), 0.3033 [nm](sigma)
# C-C,  28.129 [K](epsilon/K), 0.2757 [nm](sigma)
# C-O,  49.060 [K](epsilon/K), 0.2892 [nm](sigma)
# l(O-O), 0.232 [nm]
# q0(au), -03256
#
# ----- Potential data of Carbon-CO2 -----
# Ravikovitch, P.I., Vishnyakov, A., Russo, R., Neimark, A.V., Langmuir 16, 2311 (2000).
# Parameters of the Intermolecular Potentials for the Three-Center Model of CO2.
# Vishnyakov, A.; Ravikovitch, P. I.; Neimark, A. V. Langmuir, 1999, 15, 8736.
# Carbon-O,  47.563 [K](epsilon/K), 0.3217 [nm](sigma)
# Carbon-C,  28.13  [K](epsilon/K), 0.3107 [nm](sigma)

# ----- Potential data -----
# Sweatman, M. B., Quirke, N., J. Phys. Chem., 105, 1403 (2001).
# Initial Model Parameters for Gas-Solid Surface Interactions
# C(cylinder)-C(cylinder), 18.0 [K](epsilon/K)
# N2-C(cylinder),  25.0  [K](epsilon/K), 0.337  [nm](sigma)
# C-C,             18    [K](epsilon/K)
#
# CH4-C            57.2  [K](epsilon/K), 0.355  [nm](sigma)
# C-C,             22    [K](epsilon/K)
#
# C(of CO2)-C,     25.0  [K](epsilon/K), 0.308  [nm](sigma)
# O(of CO2)-O,     42.2  [K](epsilon/K), 0.321  [nm](sigma)
# C-C,             22    [K](epsilon/K)
# O-O,             22    [K](epsilon/K)

# ----- Potential data -----
# Sweatman, M. B., Quirke, N., J. Phys. Chem., 105, 1403 (2001).
# Initial Model Parameters for Gas-Solid Surface Interactions
# C(cylinder)-C(cylinder), 18.0 [K](epsilon/K)
# N2-C(cylinder),  26.0  [K](epsilon/K), 0.337  [nm](sigma)
# C-C,             19.5  [K](epsilon/K)
#
# CH4-C            54.5  [K](epsilon/K), 0.355  [nm](sigma)
# C-C,             20    [K](epsilon/K)
#
# C(of CO2)-C,     23.9  [K](epsilon/K), 0.308  [nm](sigma)
# O(of CO2)-O,     39.2  [K](epsilon/K), 0.321  [nm](sigma)
# C-C,             19    [K](epsilon/K)
# O-O,             19    [K](epsilon/K)

# ----- Potential data of MC -----
# Sweatman, M. B., Quirke, N., J. Phys. Chem., 105, 1403 (2001).
# Ravikovitch, P.I., Vishnyakov, A., Russo, R., Neimark, A.V., Langmuir 16, 2311 (2000).
# Ravikovitch, P., Vishnyakov, A., Neimark, A.V., Physical review E, 64, 011602-1 (2001).
# N2,              101.5  [K](epsilon/K), 0.3615 [nm](sigma), 0.373 and -0.373 [e](q)
# N2,               34.7  [K](epsilon/K), 0.334  [nm](sigma), +-0.05047 [nm] (lx), +-0.0847 and +-0.1044 [nm] (lq), 0.373 ad -0.373 [e](q)
# Ar,              118.05 [K](epsilon/K), 0.3305 [nm](sigma), 0 [nm] (lx), 0 [nm] (lq), 0 [e](q)
# C of CO2,         28.3  [K](epsilon/K), 0.275  [nm](sigma), 0 [nm] (lx), 0 [nm] (lq), 0.6521 [e](q)
# O of CO2,         81.0  [K](epsilon/K), 0.3015 [nm](sigma), +-0.1149 [nm] (lx), +-0.1149 [nm] (lq), -0.3256 [e](q)
# CH4,             148.75 [K](epsilon/K), 0.374  [nm](sigma), 0 [nm] (lx), 0 [nm] (lq), 0 [e](q)
#
# C(cylinder)-C(cylinder), 18.0 [K](epsilon/K)
# N2-C(cylinder),  25.0  [K](epsilon/K), 0.337  [nm](sigma)
# C-C,             18    [K](epsilon/K)
#
# N2-C(slit),      53.72 [K](epsilon/K), 0.3494 [nm](sigma)
# C(slit)-C(slit), 28.43 [K](epsilon/K)
#
# N2-O,           147.3  [K](epsilon/K), 0.317  [nm](sigma)
# O-O,            213.8  [K](epsilon/K)
#
# C(of CO2)-C,     25.0  [K](epsilon/K), 0.308  [nm](sigma)
# O(of CO2)-O,     42.2  [K](epsilon/K), 0.321  [nm](sigma)
# C-C,             22    [K](epsilon/K)
# O-O,             22    [K](epsilon/K)
#
# CH4-C            57.2  [K](epsilon/K), 0.355  [nm](sigma)
# C-C,             22    [K](epsilon/K)

# ----- Output setting -----
thermo_style    custom step etotal temp lx vol press
thermo          ${nfreq}

# ----- fix all of absorbent v1-----
#region		region_move block INF INF INF INF 16.0 29.0 # 11.0 34.0 # 3.0 40.0
#group		group_move region region_move
#group		group_fix subtract all group_move
#fix			fix_fix group_fix setforce 0.0 0.0 0.0

# ----- fix all of absorbent v2-----
region		region_fix block INF INF INF INF INF INF
group		group_fix region region_fix
group		group_move subtract all group_fix
fix			fix_fix group_fix setforce 0.0 0.0 0.0
velocity        all create ${temp2} 123456

# ----- Relax calculation (0 K) -----
#print "----- Relax calculation (0 K) -----"
#fix             f1 group_move box/relax iso 0.0
#minimize        1.0e-10 0.0 1000 100000
#unfix           f1

# ----- reset timestep and dt -----
reset_timestep  0
timestep        ${fs}

# ----- Output setting -----
dump            d1 all cfg ${nfreq} cfg/run.*.cfg mass type xs ys zs id type q
dump_modify     d1 element C N M

# ----- Check equilibriation setting -----
variable        Energy equal etotal
variable        Temperature equal temp
variable        Pressure equal press
fix             fout1 all ave/time 1 ${nfreq} ${nfreq} v_Energy v_Temperature v_Pressure file out_energy.txt

# ----- rigid or rigid/small -----
variable   nmove index 0   # rigid or rigid/small need 0
#fix 1 gas rigid molecule mol gas
fix 1 gas rigid/small molecule mol gas

# ----- Equilibriation (NPT) -----
#print "----- Equilibriation (NPT) -----"
#velocity        all create 10.0 123456
#fix             f1 group_move npt temp 10.0 ${temp1} ${tdamp} iso 0.0 ${pres} ${pdamp}
#run             ${nstep} # 20 ps
#unfix           f1

# ----- Equilibriation (NVT) -----
#print "----- Equilibriation (NVT) -----"
#fix             f1 group_move nvt temp ${temp1} ${temp2} ${tdamp}
#run             ${nstep} # 20 ps
#unfix           f1

# ----- GCMC Calculation-----
print "----- GCMC Calculation -----"
fix             f1 group_move npt temp ${temp2} ${temp2} ${tdamp} iso ${pres} ${pres} ${pdamp_gcmc}
fix             f2 gas nvt temp ${temp2} ${temp2} ${tdamp}
fix             f3 gas gcmc ${nfreq} ${natom} ${nmove} 0 761341 ${temp2} ${mu} ${disp} mol gas pressure ${pres} tfac_insert ${tfac}

# ----- atom count -----
variable        type1 atom "type==1" # C
variable        type2 atom "type==2" # Gas
group           type1 dynamic group_move var type1 # C
group           type2 dynamic gas var type2 # Gas (e.g., He, Ar, Kr, etc)
variable        nc  equal count(type1) # C
variable        ngas equal count(type2) # Gas (e.g., He, Ar, Kr, etc)

# ----- averaging -----
variable        rho equal density
variable        p equal press
variable        t equal temp
variable        nugget equal 1.0e-8
variable        lambda equal 1.0
variable        muex equal ${mu}-${temp2}*ln(density*${lambda}+${nugget})
fix             ave all ave/time 1 ${nfreq} ${nfreq} v_rho v_p v_muex v_ngas v_nc v_t ave one file rho_vs_p.dat
variable        rhoav equal f_ave[1]
variable        pav equal f_ave[2]
variable        muexav equal f_ave[3]
variable        ngasav equal f_ave[4] # Gas (e.g., He, Ar, Kr, etc)
variable        ncav equal f_ave[5] # C

variable        wtav equal f_ave[4]*14/(f_ave[5]*12+f_ave[4]*14+${nugget})*100

compute_modify  thermo_temp dynamic/dof yes
thermo_style    custom step temp press pe ke density atoms v_rhoav v_pav v_muexav v_ngasav v_ncav v_wtav
thermo          ${nfreq}

# ----- Output setting -----
dump            d3 all cfg ${nfreq} cfg/gcmc_run.*.cfg mass type xs ys zs id type q
dump_modify     d3 element C N M

fix_modify      f1 temp thermo_temp
fix_modify      f2 temp thermo_temp

run             ${nstep_gcmc} # 30 ps
unfix f1
unfix f2
unfix f3

# ----- Output restart data -----
write_data gcmc_restart.data